(set-info :smt-lib-version 2.6)
(set-logic QF_UFLRA)
(set-info :source |
MathSat group

|)
(set-info :category "random")
(set-info :status sat)
(declare-fun x0 () Real)
(declare-fun x1 () Real)
(declare-fun x2 () Real)
(declare-fun x3 () Real)
(declare-fun x4 () Real)
(declare-fun x5 () Real)
(declare-fun x6 () Real)
(declare-fun x7 () Real)
(declare-fun x8 () Real)
(declare-fun x9 () Real)
(declare-fun x10 () Real)
(declare-fun x11 () Real)
(declare-fun x12 () Real)
(declare-fun x13 () Real)
(declare-fun x14 () Real)
(declare-fun x15 () Real)
(declare-fun x16 () Real)
(declare-fun x17 () Real)
(declare-fun x18 () Real)
(declare-fun x19 () Real)
(declare-fun x20 () Real)
(declare-fun x21 () Real)
(declare-fun x22 () Real)
(declare-fun x23 () Real)
(declare-fun x24 () Real)
(declare-fun x25 () Real)
(declare-fun x26 () Real)
(declare-fun x27 () Real)
(declare-fun x28 () Real)
(declare-fun x29 () Real)
(declare-fun x30 () Real)
(declare-fun x31 () Real)
(declare-fun x32 () Real)
(declare-fun x33 () Real)
(declare-fun x34 () Real)
(declare-fun x35 () Real)
(declare-fun x36 () Real)
(declare-fun x37 () Real)
(declare-fun x38 () Real)
(declare-fun x39 () Real)
(declare-fun f0_1 (Real) Real)
(declare-fun f0_2 (Real Real) Real)
(declare-fun f0_3 (Real Real Real) Real)
(declare-fun f0_4 (Real Real Real Real) Real)
(declare-fun P0 () Bool)
(declare-fun P1 () Bool)
(declare-fun P2 () Bool)
(declare-fun P3 () Bool)
(declare-fun P4 () Bool)
(declare-fun P5 () Bool)
(declare-fun P6 () Bool)
(declare-fun P7 () Bool)
(declare-fun P8 () Bool)
(declare-fun P9 () Bool)
(declare-fun P10 () Bool)
(declare-fun P11 () Bool)
(declare-fun P12 () Bool)
(declare-fun P13 () Bool)
(declare-fun P14 () Bool)
(declare-fun P15 () Bool)
(declare-fun P16 () Bool)
(declare-fun P17 () Bool)
(declare-fun P18 () Bool)
(declare-fun P19 () Bool)
(declare-fun P20 () Bool)
(declare-fun P21 () Bool)
(declare-fun P22 () Bool)
(declare-fun P23 () Bool)
(declare-fun P24 () Bool)
(declare-fun P25 () Bool)
(declare-fun P26 () Bool)
(declare-fun P27 () Bool)
(declare-fun P28 () Bool)
(declare-fun P29 () Bool)
(declare-fun P30 () Bool)
(declare-fun P31 () Bool)
(declare-fun P32 () Bool)
(declare-fun P33 () Bool)
(declare-fun P34 () Bool)
(declare-fun P35 () Bool)
(declare-fun P36 () Bool)
(declare-fun P37 () Bool)
(declare-fun P38 () Bool)
(declare-fun P39 () Bool)
(assert (let ((?v_67 (<= (- (- (* 29 x24) (* 34 x2)) (* 10 x30)) 36)) (?v_174 (= (+ (- (* 23 x31) (* 36 x18)) (* 51 x19)) 30)) (?v_18 (< (- (+ (* 27 x16) (* 4 x19)) (* 2 x25)) 7)) (?v_123 (< (+ (- (* 42 x6) (* 47 x25)) (* 9 x31)) 44)) (?v_77 (< (- (+ (* 42 x25) (* 56 x21)) (* 5 x24)) 56)) (?v_118 (* 8 x22))) (let ((?v_41 (< (- (+ (* 35 x14) (* 34 x20)) ?v_118) 55)) (?v_39 (* 18 x31)) (?v_26 (< (- (+ (* 2 x29) (* 25 x10)) (* 40 x22)) 28)) (?v_58 (<= (- (+ (* 34 x30) (* 51 x31)) (* 51 x36)) 38)) (?v_52 (= (- (- (* 48 x4) (* 26 x20)) (* 10 x21)) 10)) (?v_198 (< (- (+ (* 30 x4) (* 2 x31)) (* 13 x30)) 9)) (?v_59 (< (+ (- (* 5 x33) (* 55 x1)) (* 32 x13)) 59)) (?v_37 (<= (- (+ (* 5 x23) (* 33 x26)) (* 19 x20)) 31)) (?v_57 (distinct (f0_2 x6 x3) x9)) (?v_60 (distinct x35 (f0_2 x26 x16))) (?v_127 (= x4 (f0_2 x1 x11))) (?v_2 (f0_1 x34)) (?v_120 (f0_1 x8))) (let ((?v_102 (distinct ?v_2 ?v_120)) (?v_6 (f0_1 x4))) (let ((?v_126 (= (f0_2 x23 x38) ?v_6)) (?v_169 (= x34 x23)) (?v_165 (distinct (f0_1 x33) (f0_2 x17 x22))) (?v_135 (= (f0_2 x24 x2) ?v_6)) (?v_114 (= (f0_2 x10 x20) x34)) (?v_144 (= (f0_2 x36 x1) x15)) (?v_122 (= x6 (f0_2 x12 x9))) (?v_27 (f0_1 x18))) (let ((?v_90 (distinct (f0_1 x23) ?v_27)) (?v_163 (= (f0_2 x12 x36) x37)) (?v_55 (= x28 (f0_2 x32 x0))) (?v_66 (= (f0_2 x30 x7) (f0_2 x24 x16))) (?v_32 (= x15 (f0_1 x25))) (?v_24 (f0_1 x39))) (let ((?v_162 (= ?v_24 x21)) (?v_192 (distinct ?v_120 (f0_2 x9 x2))) (?v_96 (f0_1 x14))) (let ((?v_115 (= (f0_2 x36 x37) ?v_96)) (?v_33 (= (f0_2 x33 x14) (f0_2 x20 x38))) (?v_72 (= x4 (f0_1 x13))) (?v_85 (= x13 ?v_6)) (?v_7 (f0_1 x26))) (let ((?v_21 (= ?v_7 (f0_1 x30))) (?v_150 (= (f0_1 x27) x38)) (?v_173 (f0_1 x0)) (?v_44 (f0_1 x9))) (let ((?v_110 (distinct ?v_173 ?v_44)) (?v_79 (distinct (f0_2 x2 x17) x24)) (?v_95 (distinct ?v_7 (f0_1 x10))) (?v_157 (distinct x34 (f0_2 x9 x16))) (?v_34 (= (f0_1 x2) x6)) (?v_29 (= x36 (f0_2 x18 x0))) (?v_10 (distinct (f0_2 x34 x8) (f0_2 x20 x26))) (?v_181 (= (f0_2 x17 x6) ?v_173)) (?v_4 (distinct (f0_2 x13 x30) ?v_2)) (?v_42 (distinct ?v_24 (f0_2 x27 x12))) (?v_31 (= ?v_27 (f0_1 x24))) (?v_50 (distinct (f0_1 x5) x7)) (?v_23 (= x27 x2)) (?v_159 (distinct x14 ?v_44)) (?v_140 (distinct (f0_1 x35) ?v_96)) (?v_170 (distinct (f0_2 x23 x5) (f0_2 x30 x29))) (?v_0 (not P5)) (?v_117 (not ?v_102)) (?v_19 (not P20)) (?v_1 (not P33)) (?v_46 (not ?v_127))) (let ((?v_108 (not ?v_34)) (?v_5 (not ?v_95)) (?v_119 (not P16)) (?v_3 (not P22)) (?v_206 (not P12)) (?v_75 (not ?v_4)) (?v_11 (not ?v_126)) (?v_168 (not ?v_135)) (?v_8 (not ?v_59)) (?v_124 (not ?v_162)) (?v_69 (not ?v_163)) (?v_12 (not P26)) (?v_25 (not ?v_10)) (?v_201 (not P6)) (?v_92 (not P34)) (?v_68 (not P37)) (?v_81 (not ?v_52)) (?v_38 (not ?v_79)) (?v_63 (not ?v_90)) (?v_30 (not ?v_55)) (?v_132 (not ?v_37)) (?v_86 (not ?v_85)) (?v_97 (not P0)) (?v_100 (not P18)) (?v_73 (not P2)) (?v_71 (not P14)) (?v_104 (not P31)) (?v_98 (not ?v_21)) (?v_107 (not ?v_23)) (?v_101 (not ?v_66)) (?v_185 (not ?v_42)) (?v_105 (not P23)) (?v_47 (not ?v_26)) (?v_80 (not ?v_31)) (?v_61 (not ?v_29)) (?v_88 (not ?v_169)) (?v_53 (not P4)) (?v_106 (not P32)) (?v_160 (not ?v_50)) (?v_43 (not ?v_33)) (?v_36 (not P17)) (?v_156 (not P39)) (?v_40 (not ?v_122)) (?v_64 (not ?v_41)) (?v_187 (not P10)) (?v_87 (not P28)) (?v_89 (not P35)) (?v_78 (not P3)) (?v_154 (not ?v_57)) (?v_158 (not ?v_58)) (?v_148 (not ?v_198)) (?v_103 (not ?v_72)) (?v_76 (not ?v_18)) (?v_125 (not P27)) (?v_139 (not P36)) (?v_84 (not P15)) (?v_109 (not P29)) (?v_136 (not P30)) (?v_112 (not P24)) (?v_113 (not P21)) (?v_129 (not ?v_60)) (?v_182 (not ?v_67)) (?v_180 (not P13)) (?v_149 (not ?v_157)) (?v_142 (not ?v_114)) (?v_190 (not P7)) (?v_176 (not P19)) (?v_141 (not ?v_77)) (?v_137 (not ?v_192)) (?v_138 (not ?v_123)) (?v_161 (not ?v_144)) (?v_196 (not P9)) (?v_145 (not ?v_174)) (?v_172 (not P1))) (let ((?v_208 (or P2 ?v_132)) (?v_199 (not ?v_140)) (?v_189 (not ?v_150)) (?v_167 (not P8)) (?v_191 (not ?v_110)) (?v_155 (not P11)) (?v_197 (not ?v_159)) (?v_202 (not ?v_170)) (?v_193 (not ?v_181)) (?v_183 (not ?v_165)) (?v_205 (not P25)) (?v_210 (not ?v_115)) (?v_209 (not P38)) (?v_207 (not ?v_32)) (?v_13 (< (+ (- (* (- 19) x10) (* 16 x1)) (* 19 x8)) (- 2))) (?v_15 (<= (- (+ (* (- 7) x26) (* 23 x23)) (* 41 x38)) (- 36))) (?v_14 (distinct (+ (* (- 30) x28) (* 3 x15) (* 22 x2)) (- 59))) (?v_9 (< (+ (* (- 24) x29) (* 4 x5) (* 20 x37)) (- 25))) (?v_20 (< (- (- (* 9 x5) (* 3 x7)) (* 11 x3)) (- 36))) (?v_22 (< (+ (- (* (- 52) x33) (* 47 x11)) (* 39 x1)) (- 2))) (?v_17 (<= (- (* 53 x37) (* 7 x28)) (- 8))) (?v_49 (<= (- (- (* (- 29) x36) (* 46 x10)) (* 33 x31)) (- 8)))) (let ((?v_171 (not ?v_49)) (?v_91 (= (+ (* (- 53) x12) (* 2 x7) (* 15 x18)) (- 23)))) (let ((?v_65 (not ?v_91)) (?v_54 (distinct (- (- (* (- 10) x3) (* 47 x30)) ?v_39) (- 32)))) (let ((?v_56 (not ?v_54)) (?v_178 (not ?v_14)) (?v_16 (not ?v_15)) (?v_99 (<= (+ (* 38 x1) (* 27 x17) (* 27 x8)) (- 50))) (?v_131 (not ?v_17)) (?v_28 (< (- (- (* (- 11) x9) (* 2 x34)) (* 43 x7)) 26)) (?v_133 (not ?v_20)) (?v_164 (<= (- (+ (* (- 52) x31) (* 52 x21)) (* 18 x14)) (- 34)))) (let ((?v_130 (not ?v_164)) (?v_195 (< (+ (* (- 57) x8) (* 18 x10) (* 7 x19)) 36))) (let ((?v_51 (not ?v_195)) (?v_45 (not ?v_22)) (?v_152 (<= (+ (* 12 x36) (* 7 x3) (* 5 x2)) (- 34)))) (let ((?v_146 (not ?v_152)) (?v_48 (distinct (- (- (* (- 51) x10) (* 16 x24)) (* 25 x11)) (- 22))) (?v_186 (<= (- (- (* 48 x22) (* 38 x18)) (* 39 x7)) (- 59)))) (let ((?v_35 (not ?v_186)) (?v_94 (= (- (- (* (- 1) x28) (* 32 x21)) (* 24 x25)) (- 35))) (?v_74 (< (- (- (* (- 37) x29) (* 20 x1)) (* 19 x6)) (- 45)))) (let ((?v_70 (not ?v_74)) (?v_93 (<= (+ (* (- 17) x33) (* 27 x11) ?v_39) 16)) (?v_62 (< (- (+ (* (- 43) x32) (* 30 x33)) (* 3 x11)) 6))) (let ((?v_153 (not ?v_62)) (?v_82 (<= (+ (* 5 x5) (* 48 x8) (* 34 x37)) (- 1))) (?v_121 (<= (- (+ (* (- 52) x20) (* 11 x14)) (* 56 x28)) 50)) (?v_204 (<= (+ (* 49 x30) (* 21 x20)) (- 23)))) (let ((?v_111 (not ?v_204)) (?v_83 (<= (- (+ (* 38 x32) (* 34 x12)) (* 56 x17)) (- 55))) (?v_203 (not ?v_93)) (?v_184 (not ?v_94)) (?v_116 (not ?v_99)) (?v_128 (not ?v_28)) (?v_134 (not ?v_13)) (?v_143 (< (- (+ (* (- 25) x24) ?v_118) (* 24 x39)) 28))) (let ((?v_177 (not ?v_83)) (?v_194 (not ?v_121)) (?v_179 (<= (+ (* 30 x34) (* 33 x23)) (- 4))) (?v_147 (<= (- (+ (* 55 x5) (* 49 x35)) (* 36 x3)) (- 10)))) (let ((?v_151 (not ?v_147)) (?v_188 (not ?v_48)) (?v_166 (not ?v_143)) (?v_175 (not ?v_9)) (?v_200 (not ?v_179))) (and (and (and (and (and (and (and (and (and (and (and (and (and (and (and (and (and (and (and (and (and (and (and (and (and (and (and (and (and (and (and (and (and (and (and (and (and (and (and (and (and (and (and (and (and (and (and (and (and (and (and (and (and (and (and (and (and (and (and (and (and (and (and (and (and (and (and (and (and (and (and (and (and (and (and (and (and (and (and (and (and (and (and (and (and (and (and (and (and (and (and (and (and (and (and (and (and (and (and (and (and (and (and (and (and (and (and (and (and (and (and (and (and (and (and (and (and (and (and (and (and (and (and (and (and (and (and (and (and (and (and (and (and (and (and (and (and (and (and (and (and (and (and (and (and (and (and (and (and (and (and (and (and (and (and (and (and (and (and (and (and (and (and (and (and (and (and (and (and (and (and (and (and (and (and (and (and (and (and (and (and (and (and (and (and (and (and (and (and (and (and (and (and (and (and (and (and (and (and (and (and (and (and (and (and (and (and (and (and (and (and (and (and (and (and (and (and (and (and (and (and (and (and (and (and (and (and (and (and (and (and (and (and (and (and (and (and (and (and (and (and (and (and (and (and (and (and (and (and (and (and (and (and (and (and (and (and (and (and (and (and (and (and (and (and (and (and (and (and (and (and (and (and (and (and (and (and (and (and (and (and (and (and (and (and (and (and (and (and (and (and (and (and (and (and (and (and (and (and (and (and (and (and (and (and (and (and (and (and (and (and (and (and (and (and (and (and (and (and (and (and (and (and (and (and (and (and (and (and (and (and (and (and (and (and (and (and (and (and (and (and (and (and (and (and (and (and (and (and (and (and (and (and (and (and (and (and (and (and (and (and (and (and (and (and (and (and (and (and (and (and (and (and (and (and (and (and (and (and (and (and (and (and (and (and (and (and (and (and (and (and (and (and (and (and (and (and (and (and (and (and (and (and (and (and (and (and (and (and (and (and (and (and (and (and (and (and (and (and (and (and (and (and (and (and (and (and (and (and (and (and (and (and (and (and (and (and (and (and (and (and (and (and (and (and (and (and (and (and (and (and (and (and (and (and (and (and (and (and (and (and (and (and (and (and (and (and (and (and (and (and (and (and (and (and (and (and (and (and (or (or P16 ?v_0) ?v_13) (or (or ?v_117 ?v_23) ?v_15)) (or (or ?v_19 P19) ?v_0)) (or (or ?v_1 ?v_41) ?v_46)) (or (or ?v_1 ?v_108) ?v_5)) (or (or P27 ?v_14) ?v_57)) (or (or ?v_4 ?v_119) ?v_9)) (or (or ?v_3 P37) P23)) (or (or ?v_3 ?v_206) ?v_20)) (or (or ?v_22 ?v_17) ?v_75)) (or (or ?v_5 P1) ?v_11)) (or (or P15 P25) ?v_168)) (or (or ?v_26 ?v_67) ?v_21)) (or (or ?v_8 ?v_171) ?v_10)) (or (or ?v_124 ?v_8) P5)) (or (or ?v_65 ?v_69) ?v_9)) (or (or ?v_12 ?v_25) P3)) (or (or P38 P3) P30)) (or (or ?v_201 ?v_92) ?v_68)) (or (or ?v_81 ?v_56) ?v_33)) (or (or ?v_38 ?v_63) ?v_11)) (or (or ?v_12 ?v_29) ?v_0)) (or (or ?v_18 ?v_30) ?v_58)) (or (or ?v_13 ?v_178) ?v_132)) (or (or ?v_16 ?v_114) ?v_99)) (or (or ?v_16 ?v_86) ?v_131)) (or (or P15 ?v_28) ?v_5)) (or (or P29 ?v_18) ?v_97)) (or (or ?v_100 ?v_19) P21)) (or (or ?v_13 ?v_73) ?v_133)) (or (or P33 ?v_71) ?v_130)) (or (or ?v_104 ?v_98) ?v_15)) (or (or ?v_51 ?v_110) ?v_32)) (or (or ?v_45 P11) ?v_146)) (or (or ?v_107 ?v_48) ?v_101)) (or (or ?v_21 ?v_185) ?v_35)) (or (or ?v_77 P34) P38)) (or (or ?v_105 P34) ?v_25)) (or (or ?v_47 ?v_80) ?v_28)) (or (or ?v_25 ?v_61) P29)) (or (or ?v_88 ?v_30) ?v_53)) (or (or ?v_106 ?v_60) ?v_94)) (or (or ?v_123 ?v_26) ?v_31)) (or (or ?v_32 ?v_0) ?v_160)) (or (or ?v_70 ?v_43) P5)) (or (or ?v_36 ?v_16) ?v_34)) (or (or ?v_35 ?v_26) ?v_22)) (or (or ?v_13 ?v_36) ?v_37)) (or (or ?v_37 P33) ?v_38)) (or (or ?v_156 ?v_40) P23)) (or (or P37 ?v_93) ?v_40)) (or (or P28 ?v_153) ?v_64)) (or (or ?v_42 ?v_12) ?v_43)) (or (or ?v_159 ?v_45) ?v_46)) (or (or ?v_28 ?v_47) ?v_48)) (or (or ?v_49 ?v_41) ?v_48)) (or (or ?v_50 ?v_5) ?v_26)) (or (or P25 ?v_32) P22)) (or (or P22 ?v_187) ?v_47)) (or (or ?v_25 ?v_37) ?v_87)) (or (or ?v_37 ?v_51) P1)) (or (or P26 P9) ?v_82)) (or (or P19 ?v_52) P8)) (or (or ?v_53 P22) ?v_30)) (or (or P1 ?v_89) P20)) (or (or ?v_54 ?v_78) P29)) (or (or ?v_55 P37) P10)) (or (or ?v_56 ?v_154) P20)) (or (or ?v_18 ?v_58) P2)) (or (or ?v_170 ?v_121) ?v_59)) (or (or P6 P12) P22)) (or (or ?v_60 ?v_158) ?v_46)) (or (or ?v_61 ?v_43) P4)) (or (or ?v_51 ?v_4) ?v_62)) (or (or ?v_63 ?v_64) ?v_65)) (or (or ?v_140 ?v_11) P28)) (or (or ?v_66 ?v_67) P27)) (or (or ?v_68 P29) ?v_148)) (or (or ?v_3 ?v_65) ?v_30)) (or (or ?v_69 ?v_111) P19)) (or (or ?v_103 ?v_70) ?v_71)) (or (or ?v_72 ?v_76) ?v_73)) (or (or ?v_74 P29) ?v_75)) (or (or ?v_21 P32) P34)) (or (or ?v_125 ?v_76) ?v_47)) (or (or ?v_139 P27) ?v_77)) (or (or ?v_78 ?v_83) ?v_74)) (or (or ?v_59 ?v_79) ?v_84)) (or (or P21 ?v_20) P35)) (or (or ?v_80 ?v_81) ?v_82)) (or (or ?v_83 ?v_42) ?v_84)) (or (or ?v_45 ?v_15) ?v_85)) (or (or ?v_86 ?v_82) ?v_46)) (or (or ?v_87 ?v_88) ?v_109)) (or (or ?v_89 ?v_35) ?v_90)) (or (or ?v_77 ?v_91) ?v_41)) (or (or ?v_92 ?v_203) ?v_184)) (or (or P19 ?v_46) P33)) (or (or ?v_53 ?v_57) P24)) (or (or ?v_136 ?v_112) ?v_95)) (or (or P39 ?v_115) P5)) (or (or ?v_97 ?v_93) ?v_98)) (or (or ?v_53 ?v_50) ?v_0)) (or (or ?v_80 ?v_25) ?v_116)) (or (or ?v_100 ?v_113) ?v_101)) (or (or ?v_129 P28) ?v_43)) (or (or P7 ?v_48) ?v_102)) (or (or ?v_182 P10) ?v_103)) (or (or ?v_29 ?v_104) P33)) (or (or ?v_128 P15) ?v_180)) (or (or ?v_46 ?v_67) ?v_105)) (or (or ?v_106 ?v_55) ?v_107)) (or (or ?v_149 ?v_35) ?v_48)) (or (or ?v_108 P28) P7)) (or (or ?v_59 P21) ?v_88)) (or (or P33 ?v_78) ?v_109)) (or (or ?v_110 P10) ?v_13)) (or (or P30 ?v_111) ?v_112)) (or (or ?v_47 ?v_113) ?v_40)) (or (or ?v_105 ?v_109) ?v_21)) (or (or ?v_29 ?v_134) ?v_54)) (or (or ?v_142 P38) ?v_74)) (or (or ?v_0 ?v_190) ?v_115)) (or (or P31 ?v_8) ?v_116)) (or (or ?v_14 ?v_3) P26)) (or (or ?v_117 ?v_143) ?v_176)) (or (or ?v_31 P1) ?v_119)) (or (or ?v_141 ?v_20) ?v_74)) (or (or ?v_18 ?v_17) ?v_137)) (or (or ?v_26 ?v_42) P24)) (or (or ?v_121 ?v_91) ?v_122)) (or (or P35 ?v_138) ?v_124)) (or (or ?v_111 ?v_95) ?v_31)) (or (or ?v_125 ?v_126) ?v_127)) (or (or ?v_128 P18) ?v_5)) (or (or ?v_81 ?v_127) P11)) (or (or P37 ?v_16) ?v_65)) (or (or ?v_161 ?v_196) ?v_129)) (or (or ?v_16 ?v_130) ?v_40)) (or (or ?v_87 ?v_13) ?v_1)) (or (or ?v_55 P14) ?v_128)) (or (or ?v_54 ?v_145) ?v_111)) (or (or ?v_172 ?v_131) ?v_126)) (or ?v_208 ?v_85)) (or (or ?v_133 P10) ?v_134)) (or (or P4 ?v_99) ?v_135)) (or (or ?v_136 ?v_137) ?v_80)) (or (or ?v_177 ?v_138) P5)) (or (or ?v_114 ?v_33) ?v_139)) (or (or ?v_49 ?v_194) ?v_59)) (or (or ?v_179 ?v_136) ?v_138)) (or (or ?v_67 ?v_32) ?v_199)) (or (or ?v_123 ?v_129) ?v_51)) (or (or P27 ?v_92) ?v_141)) (or (or ?v_137 P18) ?v_22)) (or (or ?v_121 ?v_60) ?v_123)) (or (or ?v_76 ?v_189) ?v_142)) (or (or ?v_23 ?v_17) ?v_8)) (or (or ?v_89 ?v_136) ?v_102)) (or (or ?v_167 ?v_43) ?v_47)) (or (or ?v_151 ?v_143) P8)) (or (or ?v_144 ?v_188) ?v_82)) (or (or P31 ?v_53) ?v_119)) (or (or ?v_65 P33) ?v_48)) (or (or ?v_145 ?v_191) ?v_105)) (or (or ?v_146 ?v_40) ?v_17)) (or (or ?v_145 ?v_79) ?v_112)) (or (or ?v_61 ?v_92) ?v_147)) (or (or ?v_146 ?v_77) ?v_43)) (or (or P9 ?v_77) P39)) (or (or ?v_34 ?v_148) P1)) (or (or P31 ?v_28) ?v_166)) (or (or ?v_49 P4) ?v_119)) (or (or ?v_141 P22) ?v_101)) (or (or P23 P29) ?v_149)) (or (or ?v_128 ?v_150) P2)) (or (or ?v_146 ?v_0) P37)) (or (or ?v_155 ?v_151) ?v_152)) (or (or ?v_94 ?v_153) ?v_113)) (or (or ?v_154 ?v_155) ?v_132)) (or (or ?v_156 ?v_74) ?v_55)) (or (or ?v_157 ?v_9) ?v_104)) (or (or P21 ?v_158) ?v_21)) (or (or ?v_197 ?v_160) ?v_25)) (or (or ?v_54 ?v_14) ?v_100)) (or (or P38 P32) ?v_72)) (or (or ?v_101 ?v_43) P0)) (or (or ?v_119 ?v_50) ?v_10)) (or (or ?v_80 ?v_91) P17)) (or (or ?v_161 ?v_75) ?v_133)) (or (or ?v_162 P17) ?v_62)) (or (or ?v_110 ?v_165) ?v_87)) (or (or ?v_14 ?v_84) ?v_92)) (or (or P20 P37) ?v_147)) (or (or ?v_163 ?v_164) ?v_107)) (or (or P20 ?v_102) ?v_58)) (or (or ?v_165 ?v_166) ?v_135)) (or (or ?v_102 ?v_10) ?v_51)) (or (or ?v_116 ?v_167) ?v_4)) (or (or ?v_40 ?v_168) ?v_102)) (or (or ?v_169 ?v_202) ?v_171)) (or (or ?v_60 ?v_175) ?v_93)) (or (or ?v_172 ?v_95) ?v_164)) (or (or P34 ?v_40) ?v_152)) (or (or ?v_193 ?v_164) ?v_37)) (or (or ?v_174 ?v_155) P26)) (or (or ?v_9 ?v_168) ?v_48)) (or (or ?v_97 ?v_113) ?v_85)) (or (or ?v_171 ?v_61) ?v_8)) (or (or P36 ?v_163) ?v_98)) (or (or P18 ?v_70) ?v_99)) (or (or ?v_175 P13) P4)) (or (or ?v_25 ?v_119) ?v_102)) (or (or ?v_114 ?v_176) ?v_28)) (or (or ?v_139 ?v_32) ?v_51)) (or (or ?v_82 P29) ?v_108)) (or (or ?v_68 ?v_34) ?v_75)) (or (or ?v_177 ?v_83) P2)) (or (or P27 ?v_178) ?v_43)) (or (or ?v_128 ?v_179) ?v_180)) (or (or ?v_138 ?v_12) ?v_172)) (or (or ?v_144 P14) ?v_69)) (or (or ?v_149 P18) ?v_42)) (or (or ?v_181 ?v_26) ?v_183)) (or (or ?v_137 P1) ?v_182)) (or (or ?v_162 ?v_140) ?v_10)) (or (or ?v_74 P25) ?v_34)) (or (or P18 ?v_77) ?v_8)) (or (or P39 ?v_183) P28)) (or (or ?v_154 ?v_11) ?v_184)) (or (or ?v_79 ?v_48) ?v_170)) (or (or ?v_176 ?v_99) ?v_179)) (or (or ?v_183 ?v_166) ?v_185)) (or (or ?v_163 P13) P26)) (or (or ?v_37 ?v_75) ?v_48)) (or (or ?v_125 ?v_63) ?v_144)) (or (or ?v_65 ?v_78) ?v_167)) (or (or ?v_123 ?v_56) ?v_179)) (or (or P13 ?v_91) ?v_181)) (or (or ?v_115 P17) ?v_148)) (or (or ?v_167 ?v_174) P6)) (or (or ?v_86 ?v_11) ?v_95)) (or (or ?v_134 ?v_84) P18)) (or (or ?v_171 P23) ?v_41)) (or (or ?v_82 ?v_4) ?v_186)) (or (or ?v_88 ?v_15) ?v_110)) (or (or ?v_154 ?v_106) P31)) (or (or ?v_114 ?v_78) P28)) (or (or P21 ?v_187) P16)) (or (or ?v_26 ?v_142) ?v_62)) (or (or ?v_205 ?v_43) ?v_188)) (or (or P19 ?v_157) P1)) (or (or ?v_189 ?v_79) ?v_91)) (or (or ?v_125 ?v_190) ?v_175)) (or (or ?v_95 (not ?v_82)) ?v_80)) (or (or ?v_142 ?v_142) ?v_191)) (or (or ?v_103 P14) ?v_98)) (or (or P14 ?v_166) ?v_0)) (or (or P25 ?v_60) ?v_26)) (or (or ?v_28 ?v_14) ?v_83)) (or (or ?v_175 ?v_170) ?v_89)) (or (or ?v_14 ?v_192) ?v_148)) (or (or P37 P14) ?v_12)) (or (or ?v_175 P24) ?v_1)) (or (or ?v_180 ?v_170) ?v_29)) (or (or ?v_171 ?v_174) ?v_123)) (or (or ?v_54 ?v_169) ?v_133)) (or (or ?v_94 ?v_81) P6)) (or (or P31 P21) ?v_45)) (or (or P9 ?v_154) ?v_147)) (or (or ?v_111 ?v_82) ?v_130)) (or (or P3 ?v_138) P9)) (or (or P7 ?v_9) ?v_19)) (or (or ?v_184 P34) P17)) (or (or P22 ?v_167) ?v_193)) (or (or ?v_159 ?v_117) P17)) (or (or ?v_3 P11) ?v_93)) (or (or ?v_58 ?v_125) ?v_194)) (or (or ?v_87 ?v_15) ?v_43)) (or (or ?v_23 ?v_188) ?v_167)) (or (or ?v_34 ?v_21) P18)) (or (or P26 ?v_113) ?v_29)) (or (or ?v_210 ?v_149) ?v_23)) (or (or ?v_54 ?v_82) ?v_209)) (or (or P7 ?v_168) ?v_69)) (or (or ?v_21 ?v_51) ?v_168)) (or (or ?v_66 ?v_165) ?v_115)) (or (or ?v_167 ?v_193) P34)) (or (or ?v_0 ?v_159) ?v_59)) (or (or ?v_176 ?v_182) ?v_92)) (or (or ?v_12 ?v_74) ?v_149)) (or (or ?v_139 ?v_189) ?v_195)) (or (or ?v_80 P5) ?v_83)) (or (or ?v_166 P25) P9)) (or (or P4 ?v_134) ?v_175)) (or (or ?v_152 P1) P21)) (or (or ?v_22 P26) ?v_162)) (or (or ?v_117 ?v_155) ?v_161)) (or (or ?v_166 ?v_161) ?v_17)) (or (or ?v_147 ?v_163) ?v_182)) (or (or P31 P15) P16)) (or (or ?v_86 P7) ?v_196)) (or (or ?v_21 ?v_69) ?v_15)) (or (or ?v_163 ?v_197) ?v_194)) (or (or ?v_63 ?v_123) ?v_162)) (or (or ?v_131 ?v_200) P39)) (or (or ?v_80 ?v_129) ?v_139)) (or (or ?v_195 ?v_34) ?v_139)) (or (or ?v_130 ?v_146) ?v_49)) (or (or ?v_138 ?v_11) ?v_156)) (or (or ?v_53 ?v_167) ?v_31)) (or (or ?v_196 ?v_151) ?v_75)) (or (or ?v_57 ?v_4) ?v_129)) (or (or P34 P16) ?v_198)) (or (or P37 P15) ?v_178)) (or (or ?v_196 ?v_142) ?v_153)) (or (or ?v_185 ?v_199) ?v_176)) (or (or P8 ?v_23) P33)) (or (or ?v_116 P20) ?v_36)) (or (or ?v_155 ?v_28) P26)) (or (or ?v_75 ?v_116) P11)) (or (or ?v_200 ?v_35) ?v_148)) (or (or ?v_130 P8) P18)) (or (or ?v_158 ?v_129) ?v_179)) (or (or ?v_207 P30) P23)) (or (or ?v_18 P9) ?v_176)) (or (or ?v_115 ?v_86) P19)) (or (or P34 ?v_36) ?v_22)) (or (or ?v_73 ?v_177) ?v_137)) (or (or ?v_119 ?v_52) ?v_201)) (or (or ?v_130 ?v_32) ?v_25)) (or (or ?v_202 ?v_200) ?v_41)) (or (or ?v_191 ?v_134) ?v_64)) (or (or P17 ?v_150) ?v_18)) (or (or ?v_23 P13) ?v_184)) (or (or P38 ?v_70) ?v_15)) (or (or ?v_190 ?v_153) ?v_121)) (or (or ?v_65 ?v_106) ?v_172)) (or (or ?v_135 ?v_177) ?v_59)) (or (or ?v_195 ?v_203) ?v_150)) (or (or ?v_145 ?v_194) ?v_30)) (or (or ?v_92 ?v_153) P31)) (or (or ?v_105 ?v_124) ?v_5)) (or (or P15 ?v_95) ?v_184)) (or (or ?v_147 ?v_116) ?v_187)) (or (or ?v_172 ?v_15) ?v_204)) (or (or ?v_23 ?v_141) ?v_205)) (or (or ?v_137 ?v_206) ?v_198)) (or (or ?v_20 ?v_76) ?v_104)) (or (or ?v_141 ?v_106) ?v_20)) (or (or P16 ?v_64) ?v_97)) (or (or ?v_11 P4) ?v_188)) (or (or ?v_82 ?v_113) ?v_172)) (or (or ?v_116 ?v_165) ?v_98)) (or (or P29 ?v_129) ?v_97)) (or (or ?v_112 ?v_98) ?v_117)) (or (or ?v_159 ?v_41) ?v_11)) (or (or ?v_63 ?v_99) ?v_154)) (or (or ?v_195 ?v_165) ?v_0)) (or (or ?v_58 ?v_76) ?v_153)) (or (or P24 ?v_17) P27)) (or (or P11 ?v_22) P27)) (or (or ?v_152 ?v_84) P8)) (or (or ?v_191 ?v_117) ?v_31)) (or (or P14 ?v_17) ?v_18)) (or (or ?v_202 ?v_71) ?v_82)) (or (or ?v_134 P34) ?v_51)) (or (or ?v_76 ?v_139) ?v_206)) (or (or ?v_64 ?v_150) ?v_73)) (or (or P37 ?v_78) ?v_108)) (or (or ?v_94 ?v_18) ?v_87)) (or (or ?v_35 ?v_200) ?v_91)) (or (or P24 ?v_53) ?v_156)) (or (or ?v_207 ?v_144) ?v_99)) (or (or ?v_13 ?v_3) ?v_127)) (or (or ?v_127 ?v_124) ?v_22)) (or (or P32 ?v_59) ?v_31)) (or ?v_208 ?v_53)) (or (or ?v_91 ?v_136) ?v_0)) (or (or ?v_123 P3) ?v_141)) (or (or ?v_23 ?v_156) ?v_166)) (or (or ?v_104 ?v_99) ?v_1)) (or (or P7 ?v_156) ?v_77)) (or (or ?v_200 ?v_165) ?v_73)) (or (or ?v_64 ?v_117) ?v_133)) (or (or ?v_130 ?v_40) ?v_57)) (or (or P20 ?v_71) ?v_103)) (or (or ?v_84 P7) ?v_40)) (or (or ?v_152 P3) ?v_147)) (or (or ?v_25 ?v_138) ?v_182)) (or (or ?v_54 ?v_142) ?v_41)) (or (or ?v_132 ?v_193) P36)) (or (or ?v_68 ?v_169) P39)) (or (or ?v_192 ?v_52) P4)) (or (or ?v_3 ?v_183) ?v_16)) (or (or ?v_145 ?v_55) ?v_53)) (or (or ?v_55 P17) ?v_77)) (or (or ?v_107 ?v_107) ?v_98)) (or (or ?v_32 P37) ?v_183)) (or (or ?v_189 ?v_111) ?v_83)) (or (or ?v_80 ?v_110) P34)) (or (or ?v_71 ?v_25) ?v_55)) (or (or P35 ?v_30) ?v_169)) (or (or ?v_202 ?v_23) ?v_165)) (or (or ?v_201 ?v_140) ?v_36)) (or (or P32 ?v_204) ?v_123)) (or (or ?v_93 ?v_74) ?v_184)) (or (or P1 ?v_107) ?v_104)) (or (or P22 ?v_58) ?v_41)) (or (or P26 P25) ?v_116)) (or (or P14 ?v_171) ?v_137)) (or (or ?v_129 ?v_62) P38)) (or (or ?v_43 ?v_152) P19)) (or (or P36 ?v_209) ?v_190)) (or (or ?v_174 P38) P15)) (or (or ?v_157 ?v_199) ?v_187)) (or (or ?v_169 ?v_58) ?v_70)) (or (or ?v_198 ?v_190) ?v_126)) (or (or ?v_35 ?v_184) ?v_13)) (or (or P14 ?v_72) ?v_204)) (or (or ?v_69 ?v_199) ?v_153)) (or (or ?v_148 ?v_187) ?v_186)) (or (or ?v_65 ?v_54) ?v_20)) (or (or ?v_139 ?v_205) ?v_198)) (or (or ?v_191 ?v_88) ?v_65)) (or (or ?v_147 ?v_185) P17)) (or (or ?v_161 ?v_201) ?v_76)) (or (or ?v_111 ?v_5) ?v_114)) (or (or ?v_139 ?v_151) ?v_78)) (or (or ?v_28 P5) ?v_92)) (or (or ?v_157 ?v_79) ?v_69)) (or (or ?v_36 ?v_134) ?v_192)) (or (or ?v_178 ?v_89) ?v_73)) (or (or P0 ?v_82) ?v_22)) (or (or ?v_56 ?v_209) ?v_169)) (or (or ?v_114 ?v_3) ?v_176)) (or (or ?v_206 ?v_99) ?v_90)) (or (or ?v_104 P10) ?v_105)) (or (or ?v_93 ?v_79) ?v_76)) (or (or ?v_121 ?v_101) ?v_63)) (or (or ?v_29 ?v_16) ?v_84)) (or (or ?v_42 ?v_111) ?v_164)) (or (or P0 ?v_159) ?v_163)) (or (or ?v_182 ?v_181) ?v_171)) (or (or P23 ?v_71) ?v_50)) (or (or ?v_93 ?v_19) ?v_177)) (or (or ?v_9 ?v_109) ?v_126)) (or (or P34 ?v_67) P10)) (or (or ?v_129 ?v_147) ?v_176)) (or (or P31 ?v_95) P26)) (or (or ?v_117 ?v_159) ?v_53)) (or (or ?v_150 ?v_134) ?v_30)) (or (or ?v_196 ?v_157) ?v_108)) (or (or ?v_151 ?v_60) ?v_101)) (or (or ?v_40 ?v_33) ?v_58)) (or (or ?v_115 P31) ?v_82)) (or (or ?v_152 ?v_65) P33)) (or (or ?v_45 P37) P15)) (or (or ?v_129 ?v_102) ?v_103)) (or (or ?v_71 ?v_81) ?v_63)) (or (or ?v_181 P21) P29)) (or (or ?v_157 ?v_178) ?v_81)) (or (or ?v_26 ?v_21) ?v_181)) (or (or ?v_65 ?v_114) ?v_52)) (or (or ?v_156 P8) ?v_168)) (or (or ?v_67 P20) ?v_146)) (or (or ?v_47 ?v_190) ?v_205)) (or (or ?v_176 ?v_186) ?v_103)) (or (or P29 ?v_31) P24)) (or (or ?v_105 ?v_111) P15)) (or (or ?v_31 ?v_67) ?v_137)) (or (or ?v_86 P1) ?v_210)) (or (or P7 ?v_89) ?v_155)) (or (or ?v_62 P9) P17)) (or (or ?v_139 ?v_128) ?v_136)) (or (or ?v_26 ?v_82) ?v_195)) (or (or P16 P7) ?v_130)) (or (or ?v_137 P4) ?v_5)) (or (or ?v_178 ?v_196) ?v_55)) (or (or ?v_111 ?v_81) P12))))))))))))))))))))))))))
(check-sat)
(exit)
